(set-info :smt-lib-version 2.6)
(set-logic QF_NIA)
(set-info :source  | 
Generated by: Johannes Bauer
Generated on: 2026-06-18
Generator: mgm A12 Test Data Generator
Application: ELSTER
Target solver: Z3, Yices2, CVC5
Script is based on the ELSTER form: capital gains tax registration (A / KapEStInvStG)
Characteristic of the form: easy.
In this script, all terms of the form (* x1 x2 x3 ...) are in the form (* x1 c2 c3 ...),
all terms of the form (div x y) are in the form (div x c) and the symbol mod is exclusively used in the form (mod x c),
where x, y, and x1, x2, x3 ... are free constants and c, c2, c3 ... are terms in the form n or (-n) for some numeral n.
The script starts with the base constraints, which define a valid data set for the corresponding form. After the first (push 1), control constraints follow.
The goal of the control constraints in this script is to fill up a data set with values, after the characteristics of the high test coverage were placed.
number variables: 69, number constraints: 111
"https://www.elster.de/eportal/start?locale=en_US"
"https://www.mgm-tp.com/q12-tdg.html"
"https://a12.ai/public-sector"
|)
(set-info :license "https://creativecommons.org/licenses/by/4.0/")
(set-info :category "industrial")
(declare-fun I1-N () Int)
(declare-fun B2-F () Bool)
(declare-fun B3-F () Bool)
(declare-fun I3-y () Int)
(declare-fun B4-F () Bool)
(declare-fun I4-N () Int)
(declare-fun I5-N () Int)
(declare-fun I6-y () Int)
(declare-fun I6-m () Int)
(declare-fun I6-d () Int)
(declare-fun I7-y () Int)
(declare-fun I7-m () Int)
(declare-fun I7-d () Int)
(declare-fun I8 () Int)
(declare-fun I9 () Int)
(declare-fun I10-y () Int)
(declare-fun I10-m () Int)
(declare-fun I10-d () Int)
(declare-fun I11-y () Int)
(declare-fun I11-m () Int)
(declare-fun I11-d () Int)
(declare-fun I12 () Int)
(declare-fun I13 () Int)
(declare-fun I14-y () Int)
(declare-fun I14-m () Int)
(declare-fun I14-d () Int)
(declare-fun I15-y () Int)
(declare-fun I15-m () Int)
(declare-fun I15-d () Int)
(declare-fun I16 () Int)
(declare-fun I17 () Int)
(declare-fun I18 () Int)
(declare-fun I19-N () Int)
(declare-fun I20-y () Int)
(declare-fun I20-m () Int)
(declare-fun I20-d () Int)
(declare-fun I21-y () Int)
(declare-fun I21-m () Int)
(declare-fun I21-d () Int)
(declare-fun B22-F () Bool)
(declare-fun I23 () Int)
(declare-fun B24-F () Bool)
(declare-fun I24-y () Int)
(declare-fun I24-m () Int)
(declare-fun I24-d () Int)
(declare-fun B25-F () Bool)
(declare-fun B26-F () Bool)
(declare-fun I26 () Int)
(declare-fun B27-F () Bool)
(declare-fun I27 () Int)
(declare-fun B28-F () Bool)
(declare-fun B29-F () Bool)
(declare-fun I29 () Int)
(declare-fun B30-F () Bool)
(declare-fun I30 () Int)
(declare-fun B31-F () Bool)
(declare-fun I31 () Int)
(declare-fun B32-F () Bool)
(declare-fun I32 () Int)
(declare-fun B33-F () Bool)
(declare-fun B34-F () Bool)
(declare-fun I34 () Int)
(declare-fun B35-F () Bool)
(declare-fun B36-F () Bool)
(declare-fun B37-F () Bool)
(declare-fun B38-F () Bool)
(declare-fun B39-F () Bool)
(declare-fun B40-F () Bool)
(declare-fun B41-F () Bool)
(assert (= 0 (+ I8 I12 I17 I23 (- 2))))
(assert (and (<= I7-y I6-y) (or (distinct I7-y I6-y) (<= I7-m I6-m)) (or (distinct I7-y I6-y) (distinct I7-m I6-m) (<= I7-d I6-d))))
(assert (< (ite (and (>= I5-N 1) (<= I5-N 9999)) (+ (- I7-y I5-N) (ite (or (< I5-N I7-y) (and (= I5-N I7-y) (< 5 I7-m)) (and (= I5-N I7-y) (= 5 I7-m) (< 1 I7-d)) (and (= I5-N I7-y) (= 5 I7-m) (= 1 I7-d))) (ite (or (< 5 I7-m) (and (= 5 I7-m) (<= 1 I7-d))) 0 (- 1)) (ite (or (> 5 I7-m) (and (= 5 I7-m) (>= 1 I7-d))) 0 1))) 0) 1))
(assert (<= I5-N 2025))
(assert (distinct I8 0))
(assert (distinct I8 0))
(assert (<= (* I8 100) (- 14999999999885)))
(assert (<= (ite (>= (- I9 (div (* I8 55) 10)) 0) (- I9 (div (* I8 55) 10)) (- (- I9 (div (* I8 55) 10)))) 100))
(assert (or (< 0 I20-y) (and (= 0 I20-y) (< 0 I20-m)) (and (= 0 I20-y) (= 0 I20-m) (< 0 I20-d)) (and (= 0 I20-y) (= 0 I20-m) (= 0 I20-d))))
(assert (< 0 I19-N))
(assert (<= (ite (>= (- 6796 (div (* I23 55) 10)) 0) (- 6796 (div (* I23 55) 10)) (- (- 6796 (div (* I23 55) 10)))) 100))
(assert (and (= I10-y (ite B3-F I3-y 0)) (= I10-m I4-N)))
(assert (>= I10-y 2025))
(assert (distinct I12 0))
(assert (distinct I12 0))
(assert (and (<= 2025 I10-y) (or (distinct 2025 I10-y) (<= 12 I10-m)) (or (distinct 2025 I10-y) (distinct 12 I10-m) (<= 31 I10-d))))
(assert (and (<= I15-y I14-y) (or (distinct I15-y I14-y) (<= I15-m I14-m)) (or (distinct I15-y I14-y) (distinct I15-m I14-m) (<= I15-d I14-d))))
(assert (or (= I16 0) (distinct I17 0)))
(assert (<= (* I17 100) (+ (* I16 15) 100)))
(assert (= 0 (+ I30 I29 I31 I32 I34 42541503000854)))
(assert (not (or B24-F B25-F)))
(assert (= B25-F (or B26-F B27-F)))
(assert (= B39-F (or B40-F B41-F)))
(assert (ite B26-F (and (<= I26 999999999999) (>= I26 0)) (= I26 0)))
(assert (ite B27-F (and (<= I27 999999999999) (>= I27 0)) (= I27 0)))
(assert (and (<= I8 999999999999) (>= I8 (- 999999999999))))
(assert (and (<= I9 99999999999999) (>= I9 (- 99999999999999))))
(assert (ite B22-F true false))
(assert (and (<= I23 999999999999) (>= I23 (- 999999999999))))
(assert (and (<= I12 999999999999) (>= I12 (- 999999999999))))
(assert (and (<= I13 99999999999999) (>= I13 (- 99999999999999))))
(assert (and (<= I16 999999999999) (>= I16 (- 999999999999))))
(assert (and (<= I17 999999999999) (>= I17 (- 999999999999))))
(assert (and (<= I18 99999999999999) (>= I18 (- 99999999999999))))
(assert (ite B30-F (and (<= I30 99999999999999) (>= I30 (- 9999999999999))) (= I30 0)))
(assert (ite B29-F (and (<= I29 99999999999999) (>= I29 (- 9999999999999))) (= I29 0)))
(assert (ite B28-F true false))
(assert (ite B31-F (and (<= I31 99999999999999) (>= I31 (- 9999999999999))) (= I31 0)))
(assert (ite B32-F (and (<= I32 99999999999999) (>= I32 (- 9999999999999))) (= I32 0)))
(assert (ite B33-F true false))
(assert (ite B34-F (and (<= I34 99999999999999) (>= I34 (- 9999999999999))) (= I34 0)))
(assert (ite B37-F true false))
(assert (ite B35-F true false))
(assert (ite B36-F true false))
(assert (ite B38-F true false))
(assert (and (ite B24-F (and (> I24-y 1900) (< I24-y 2100)) (= I24-y 0)) (ite B24-F (and (> I24-m 0) (<= I24-m 12)) (= I24-m 0)) (ite B24-F (and (> I24-d 0) (<= I24-d (ite (or (= I24-m 0) (= I24-m 1) (= I24-m 3) (= I24-m 5) (= I24-m 7) (= I24-m 8) (= I24-m 10) (= I24-m 12)) 31 (ite (or (= I24-m 4) (= I24-m 6) (= I24-m 9) (= I24-m 11)) 30 (ite (= (mod I24-y 4) 0) 29 28))))) (= I24-d 0))))
(assert (ite B3-F (and (> I3-y 1900) (< I3-y 2100)) (= I3-y 0)))
(assert (and (> I7-y 1900) (< I7-y 2100) (> I7-m 0) (<= I7-m 12) (> I7-d 0) (<= I7-d (ite (or (= I7-m 0) (= I7-m 1) (= I7-m 3) (= I7-m 5) (= I7-m 7) (= I7-m 8) (= I7-m 10) (= I7-m 12)) 31 (ite (or (= I7-m 4) (= I7-m 6) (= I7-m 9) (= I7-m 11)) 30 (ite (= (mod I7-y 4) 0) 29 28))))))
(assert (and (> I6-y 1900) (< I6-y 2100) (> I6-m 0) (<= I6-m 12) (> I6-d 0) (<= I6-d (ite (or (= I6-m 0) (= I6-m 1) (= I6-m 3) (= I6-m 5) (= I6-m 7) (= I6-m 8) (= I6-m 10) (= I6-m 12)) 31 (ite (or (= I6-m 4) (= I6-m 6) (= I6-m 9) (= I6-m 11)) 30 (ite (= (mod I6-y 4) 0) 29 28))))))
(assert (and (> I20-y 1900) (< I20-y 2100) (> I20-m 0) (<= I20-m 12) (> I20-d 0) (<= I20-d (ite (or (= I20-m 0) (= I20-m 1) (= I20-m 3) (= I20-m 5) (= I20-m 7) (= I20-m 8) (= I20-m 10) (= I20-m 12)) 31 (ite (or (= I20-m 4) (= I20-m 6) (= I20-m 9) (= I20-m 11)) 30 (ite (= (mod I20-y 4) 0) 29 28))))))
(assert (and (> I21-y 1900) (< I21-y 2100) (> I21-m 0) (<= I21-m 12) (> I21-d 0) (<= I21-d (ite (or (= I21-m 0) (= I21-m 1) (= I21-m 3) (= I21-m 5) (= I21-m 7) (= I21-m 8) (= I21-m 10) (= I21-m 12)) 31 (ite (or (= I21-m 4) (= I21-m 6) (= I21-m 9) (= I21-m 11)) 30 (ite (= (mod I21-y 4) 0) 29 28))))))
(assert (and (> I11-y 1900) (< I11-y 2100) (> I11-m 0) (<= I11-m 12) (> I11-d 0) (<= I11-d (ite (or (= I11-m 0) (= I11-m 1) (= I11-m 3) (= I11-m 5) (= I11-m 7) (= I11-m 8) (= I11-m 10) (= I11-m 12)) 31 (ite (or (= I11-m 4) (= I11-m 6) (= I11-m 9) (= I11-m 11)) 30 (ite (= (mod I11-y 4) 0) 29 28))))))
(assert (and (> I10-y 1900) (< I10-y 2100) (> I10-m 0) (<= I10-m 12) (> I10-d 0) (<= I10-d (ite (or (= I10-m 0) (= I10-m 1) (= I10-m 3) (= I10-m 5) (= I10-m 7) (= I10-m 8) (= I10-m 10) (= I10-m 12)) 31 (ite (or (= I10-m 4) (= I10-m 6) (= I10-m 9) (= I10-m 11)) 30 (ite (= (mod I10-y 4) 0) 29 28))))))
(assert (and (> I15-y 1900) (< I15-y 2100) (> I15-m 0) (<= I15-m 12) (> I15-d 0) (<= I15-d (ite (or (= I15-m 0) (= I15-m 1) (= I15-m 3) (= I15-m 5) (= I15-m 7) (= I15-m 8) (= I15-m 10) (= I15-m 12)) 31 (ite (or (= I15-m 4) (= I15-m 6) (= I15-m 9) (= I15-m 11)) 30 (ite (= (mod I15-y 4) 0) 29 28))))))
(assert (and (> I14-y 1900) (< I14-y 2100) (> I14-m 0) (<= I14-m 12) (> I14-d 0) (<= I14-d (ite (or (= I14-m 0) (= I14-m 1) (= I14-m 3) (= I14-m 5) (= I14-m 7) (= I14-m 8) (= I14-m 10) (= I14-m 12)) 31 (ite (or (= I14-m 4) (= I14-m 6) (= I14-m 9) (= I14-m 11)) 30 (ite (= (mod I14-y 4) 0) 29 28))))))
(assert (and (> I5-N 1900) (< I5-N 2100)))
(assert (and (> I5-N 1900) (< I5-N 2100)))
(assert (and (>= I5-N 0) (<= I5-N 9999)))
(assert (and (>= I19-N 0) (<= I19-N 9999)))
(assert (or (= I1-N 0) (= I1-N 1)))
(assert (ite B4-F (or (= I4-N 1) (= I4-N 2) (= I4-N 3) (= I4-N 4) (= I4-N 5) (= I4-N 6) (= I4-N 7) (= I4-N 8) (= I4-N 9) (= I4-N 10) (= I4-N 11) (= I4-N 12)) (= I4-N 0)))
(assert (not (and B27-F B26-F (distinct I26 0) (distinct I27 (div (* I26 15) 100)))))
(assert (not (and B24-F (or (< I24-y 2025) (> I24-y 2025)))))
(assert (not (and (or B41-F B40-F) (not (and B41-F B40-F)))))
(assert (not (distinct 0 (+ I8 I12 I17 I23 (- 2)))))
(assert (not (distinct 0 (+ I9 I13 I18 6804))))
(assert (not (and B3-F (or (< I3-y 2025) (> I3-y 2025)))))
(assert (not (or (> I7-y I6-y) (and (= I7-y I6-y) (> I7-m I6-m)) (and (= I7-y I6-y) (= I7-m I6-m) (> I7-d I6-d)))))
(assert (not (or (distinct I6-y (ite B3-F I3-y 0)) (distinct I6-m I4-N))))
(assert (not (>= (ite (and (>= I5-N 1) (<= I5-N 9999)) (+ (- I7-y I5-N) (ite (or (< I5-N I7-y) (and (= I5-N I7-y) (< 5 I7-m)) (and (= I5-N I7-y) (= 5 I7-m) (< 1 I7-d)) (and (= I5-N I7-y) (= 5 I7-m) (= 1 I7-d))) (ite (or (< 5 I7-m) (and (= 5 I7-m) (<= 1 I7-d))) 0 (- 1)) (ite (or (> 5 I7-m) (and (= 5 I7-m) (>= 1 I7-d))) 0 1))) 0) 1)))
(assert (not (< I6-y I5-N)))
(assert (not (> I5-N 2025)))
(assert (not (= I8 0)))
(assert (not (> (* I8 100) (- 14999999999885))))
(assert (not (> (ite (>= (- I9 (div (* I8 55) 10)) 0) (- I9 (div (* I8 55) 10)) (- (- I9 (div (* I8 55) 10)))) 100)))
(assert (not (distinct I20-y I19-N)))
(assert (not (or (> I20-y (ite B3-F I3-y 0)) (and (= I20-y (ite B3-F I3-y 0)) (> I20-m I4-N)))))
(assert (not (> I19-N 2025)))
(assert (not (or (and (or (< I20-y 2022) (and (= I20-y 2022) (< I20-m 10)) (and (= I20-y 2022) (= I20-m 10) (< I20-d 1))) (< I19-N 2025)) (and (or (> I20-y 2022) (and (= I20-y 2022) (> I20-m 10)) (and (= I20-y 2022) (= I20-m 10) (> I20-d 1)) (and (= I20-y 2022) (= I20-m 10) (= I20-d 1))) (or (and (< I19-N 2025) (= I19-N 2024) (>= I4-N 5) (<= I4-N 12)) (and (< I19-N 2025) (distinct I19-N 2024)))))))
(assert (not (or (and (= I20-y (ite B3-F I3-y 0)) (< I20-m (- I4-N 4))) (and (distinct I20-y (ite B3-F I3-y 0)) (< I20-y (- (ite B3-F I3-y 0) 1))) (and (distinct I20-y (ite B3-F I3-y 0)) (= I20-y (- (ite B3-F I3-y 0) 1)) (> I20-m 8) (< I20-m (- (+ I4-N 12) 4))) (and (distinct I20-y (ite B3-F I3-y 0)) (= I20-y (- (ite B3-F I3-y 0) 1)) (<= I20-m 8)))))
(assert (not (and B22-F (= I23 0))))
(assert (not (> (ite (>= (- 6796 (div (* I23 55) 10)) 0) (- 6796 (div (* I23 55) 10)) (- (- 6796 (div (* I23 55) 10)))) 100)))
(assert (not (> (* I23 100) 6993735220)))
(assert (not (or (> I21-y (ite B3-F I3-y 0)) (and (> I21-m I4-N) (= I21-y (ite B3-F I3-y 0))))))
(assert (not (or (> I11-y I10-y) (and (= I11-y I10-y) (> I11-m I10-m)) (and (= I11-y I10-y) (= I11-m I10-m) (> I11-d I10-d)))))
(assert (not (or (distinct I10-y (ite B3-F I3-y 0)) (distinct I10-m I4-N))))
(assert (not (< I10-y 2025)))
(assert (not (= I12 0)))
(assert (not (> (ite (>= (- I13 (div (* I12 55) 10)) 0) (- I13 (div (* I12 55) 10)) (- (- I13 (div (* I12 55) 10)))) 100)))
(assert (not (> (* I12 100) (- 2225))))
(assert (not (or (> 2025 I10-y) (and (= 2025 I10-y) (> 12 I10-m)) (and (= 2025 I10-y) (= 12 I10-m) (> 31 I10-d)))))
(assert (not (or (> I15-y I14-y) (and (= I15-y I14-y) (> I15-m I14-m)) (and (= I15-y I14-y) (= I15-m I14-m) (> I15-d I14-d)))))
(assert (not (or (distinct I14-y (ite B3-F I3-y 0)) (distinct I14-m I4-N))))
(assert (not (< I14-y 2025)))
(assert (not (and (distinct I16 0) (= I17 0))))
(assert (not (> (ite (>= (- I18 (div (* I17 55) 10)) 0) (- I18 (div (* I17 55) 10)) (- (- I18 (div (* I17 55) 10)))) 100)))
(assert (not (> (* I17 100) (+ (* I16 15) 100))))
(assert (not (or (> 2025 I14-y) (and (= 2025 I14-y) (> 12 I14-m)) (and (= 2025 I14-y) (= 12 I14-m) (> 31 I14-d)))))
(assert (not B24-F))
(assert (and B3-F B4-F))
(assert (not (and B3-F B4-F (or (< 2026 I3-y) (and (= 2026 I3-y) (<= 6 I4-N))))))
(assert (not (and B3-F B4-F (or (< 2027 I3-y) (and (= 2027 I3-y) (<= 6 I4-N))))))
(assert (not (= I1-N 0)))
(assert (not (distinct 0 (+ I30 I29 I31 I32 I34 42541503000854))))
(push 1)
(assert B3-F)
(set-info :status sat)
(check-sat)
(push 1)
(assert B24-F)
(set-info :status unsat)
(check-sat)
(pop 1)
(push 1)
(assert B41-F)
(set-info :status sat)
(check-sat)
(push 1)
(assert B4-F)
(set-info :status sat)
(check-sat)
(push 1)
(assert B38-F)
(set-info :status sat)
(check-sat)
(push 1)
(assert B27-F)
(set-info :status unsat)
(check-sat)
(pop 1)
(push 1)
(assert B35-F)
(set-info :status sat)
(check-sat)
(push 1)
(assert B36-F)
(set-info :status sat)
(check-sat)
(push 1)
(assert B37-F)
(set-info :status sat)
(check-sat)
(push 1)
(assert B28-F)
(set-info :status sat)
(check-sat)
(push 1)
(assert B26-F)
(set-info :status unsat)
(check-sat)
(pop 1)
(push 1)
(assert B33-F)
(set-info :status sat)
(check-sat)
(push 1)
(assert B2-F)
(set-info :status sat)
(check-sat)
(push 1)
(assert B32-F)
(set-info :status sat)
(check-sat)
(push 1)
(assert B34-F)
(set-info :status sat)
(check-sat)
(push 1)
(assert B31-F)
(set-info :status sat)
(check-sat)
(push 1)
(assert B22-F)
(set-info :status sat)
(check-sat)
(push 1)
(assert B40-F)
(set-info :status sat)
(check-sat)
(push 1)
(assert B29-F)
(set-info :status sat)
(check-sat)
(push 1)
(assert B30-F)
(set-info :status sat)
(check-sat)
(exit)

